# Objective value = 9
y_0_FM_MN 0
y_1_FM_MN 0
y_2_FM_MN 0
y_2_FM_FDL 0
y_2_FM_WD 0
y_2_MN_FDL 0
y_2_MN_WD 0
y_2_FDL_WD 0
y_3_FM_MN 0
y_3_FM_FDL 0
y_3_FM_WD 0
y_3_MN_FDL 0
y_3_MN_WD 0
y_3_FDL_WD 0
y_4_FM_MN 0
y_4_FM_FDL 0
y_4_FM_WD 0
y_4_MN_FDL 0
y_4_MN_WD 0
y_4_FDL_WD 0
y_5_FM_MN 0
y_5_FM_FDL 0
y_5_FM_WD 0
y_5_FM_RG 0
y_5_FM_SB 0
y_5_MN_FDL 0
y_5_MN_WD 0
y_5_MN_RG 0
y_5_MN_SB 0
y_5_FDL_WD 0
y_5_FDL_RG 0
y_5_FDL_SB 0
y_5_WD_RG 0
y_5_WD_SB 0
y_5_RG_SB 0
y_6_FM_MN 0
y_6_FM_FDL 0
y_6_FM_WD 0
y_6_FM_RG 0
y_6_FM_SB 0
y_6_MN_FDL 0
y_6_MN_WD 0
y_6_MN_RG 0
y_6_MN_SB 0
y_6_FDL_WD 0
y_6_FDL_RG 0
y_6_FDL_SB 0
y_6_WD_RG 0
y_6_WD_SB 0
y_6_RG_SB 0
y_7_FM_MN 1
y_7_FM_WD 0
y_7_FM_RG 0
y_7_FM_SB 0
y_7_MN_WD 0
y_7_MN_RG 0
y_7_MN_SB 0
y_7_WD_RG 0
y_7_WD_SB 0
y_7_RG_SB 0
y_8_FM_MN 0
y_8_FM_WD 0
y_8_FM_RG 0
y_8_FM_SB 0
y_8_MN_WD 0
y_8_MN_RG 0
y_8_MN_SB 0
y_8_WD_RG 0
y_8_WD_SB 0
y_8_RG_SB 0
y_9_FM_MN 0
y_9_FM_WD 0
y_9_FM_RG 0
y_9_FM_SB 0
y_9_MN_WD 0
y_9_MN_RG 0
y_9_MN_SB 0
y_9_WD_RG 0
y_9_WD_SB 0
y_9_RG_SB 0
y_10_FM_MN 0
y_10_FM_WD 0
y_10_FM_RG 0
y_10_FM_SB 0
y_10_FM_AA 0
y_10_FM_GL 0
y_10_FM_SM 0
y_10_MN_WD 0
y_10_MN_RG 0
y_10_MN_SB 0
y_10_MN_AA 0
y_10_MN_GL 0
y_10_MN_SM 0
y_10_WD_RG 0
y_10_WD_SB 0
y_10_WD_AA 0
y_10_WD_GL 0
y_10_WD_SM 0
y_10_RG_SB 0
y_10_RG_AA 0
y_10_RG_GL 0
y_10_RG_SM 0
y_10_SB_AA 0
y_10_SB_GL 0
y_10_SB_SM 0
y_10_AA_GL 0
y_10_AA_SM 0
y_10_GL_SM 0
y_11_FM_MN 0
y_11_FM_WD 0
y_11_FM_RG 0
y_11_FM_SB 0
y_11_FM_AA 0
y_11_FM_GL 0
y_11_FM_SM 0
y_11_MN_WD 0
y_11_MN_RG 0
y_11_MN_SB 0
y_11_MN_AA 0
y_11_MN_GL 0
y_11_MN_SM 0
y_11_WD_RG 0
y_11_WD_SB 0
y_11_WD_AA 0
y_11_WD_GL 0
y_11_WD_SM 0
y_11_RG_SB 0
y_11_RG_AA 0
y_11_RG_GL 0
y_11_RG_SM 0
y_11_SB_AA 0
y_11_SB_GL 0
y_11_SB_SM 0
y_11_AA_GL 0
y_11_AA_SM 0
y_11_GL_SM 0
y_12_FM_MN 0
y_12_FM_WD 0
y_12_FM_RG 0
y_12_FM_SB 0
y_12_FM_AA 0
y_12_FM_GL 0
y_12_FM_SM 0
y_12_MN_WD 0
y_12_MN_RG 0
y_12_MN_SB 0
y_12_MN_AA 0
y_12_MN_GL 0
y_12_MN_SM 0
y_12_WD_RG 0
y_12_WD_SB 0
y_12_WD_AA 0
y_12_WD_GL 0
y_12_WD_SM 0
y_12_RG_SB 0
y_12_RG_AA 0
y_12_RG_GL 0
y_12_RG_SM 0
y_12_SB_AA 0
y_12_SB_GL 0
y_12_SB_SM 0
y_12_AA_GL 0
y_12_AA_SM 0
y_12_GL_SM 0
y_13_FM_MN 0
y_13_FM_WD 0
y_13_FM_RG 0
y_13_FM_SB 0
y_13_FM_AA 0
y_13_FM_GL 0
y_13_FM_SM 0
y_13_MN_WD 0
y_13_MN_RG 0
y_13_MN_SB 0
y_13_MN_AA 0
y_13_MN_GL 0
y_13_MN_SM 0
y_13_WD_RG 0
y_13_WD_SB 0
y_13_WD_AA 0
y_13_WD_GL 0
y_13_WD_SM 0
y_13_RG_SB 0
y_13_RG_AA 0
y_13_RG_GL 0
y_13_RG_SM 0
y_13_SB_AA 0
y_13_SB_GL 0
y_13_SB_SM 0
y_13_AA_GL 0
y_13_AA_SM 0
y_13_GL_SM 0
y_14_FM_MN 0
y_14_FM_WD 0
y_14_FM_RG 0
y_14_FM_SB 0
y_14_FM_AA 0
y_14_FM_GL 0
y_14_FM_SM 0
y_14_MN_WD 0
y_14_MN_RG 0
y_14_MN_SB 0
y_14_MN_AA 0
y_14_MN_GL 0
y_14_MN_SM 0
y_14_WD_RG 0
y_14_WD_SB 0
y_14_WD_AA 0
y_14_WD_GL 0
y_14_WD_SM 0
y_14_RG_SB 0
y_14_RG_AA 0
y_14_RG_GL 0
y_14_RG_SM 0
y_14_SB_AA 0
y_14_SB_GL 0
y_14_SB_SM 0
y_14_AA_GL 0
y_14_AA_SM 0
y_14_GL_SM 0
y_15_FM_MN 0
y_15_FM_WD 0
y_15_FM_RG 0
y_15_FM_SB 0
y_15_FM_AA 0
y_15_FM_GL 0
y_15_FM_SM 0
y_15_MN_WD 0
y_15_MN_RG 0
y_15_MN_SB 0
y_15_MN_AA 0
y_15_MN_GL 0
y_15_MN_SM 0
y_15_WD_RG 0
y_15_WD_SB 0
y_15_WD_AA 0
y_15_WD_GL 0
y_15_WD_SM 0
y_15_RG_SB 0
y_15_RG_AA 0
y_15_RG_GL 0
y_15_RG_SM 0
y_15_SB_AA 0
y_15_SB_GL 0
y_15_SB_SM 0
y_15_AA_GL 0
y_15_AA_SM 0
y_15_GL_SM 0
y_16_FM_MN 0
y_16_FM_WD 0
y_16_FM_RG 0
y_16_FM_SB 0
y_16_FM_AA 0
y_16_FM_GL 0
y_16_FM_SM 0
y_16_MN_WD 0
y_16_MN_RG 0
y_16_MN_SB 0
y_16_MN_AA 0
y_16_MN_GL 0
y_16_MN_SM 0
y_16_WD_RG 0
y_16_WD_SB 0
y_16_WD_AA 0
y_16_WD_GL 0
y_16_WD_SM 0
y_16_RG_SB 0
y_16_RG_AA 0
y_16_RG_GL 0
y_16_RG_SM 0
y_16_SB_AA 0
y_16_SB_GL 0
y_16_SB_SM 0
y_16_AA_GL 0
y_16_AA_SM 0
y_16_GL_SM 0
y_17_FM_MN 0
y_17_FM_WD 0
y_17_FM_RG 0
y_17_FM_SB 0
y_17_FM_AA 0
y_17_FM_GL 0
y_17_FM_SM 0
y_17_MN_WD 0
y_17_MN_RG 0
y_17_MN_SB 0
y_17_MN_AA 0
y_17_MN_GL 0
y_17_MN_SM 0
y_17_WD_RG 0
y_17_WD_SB 0
y_17_WD_AA 0
y_17_WD_GL 0
y_17_WD_SM 0
y_17_RG_SB 0
y_17_RG_AA 0
y_17_RG_GL 0
y_17_RG_SM 0
y_17_SB_AA 0
y_17_SB_GL 0
y_17_SB_SM 0
y_17_AA_GL 0
y_17_AA_SM 0
y_17_GL_SM 0
y_18_FM_MN 0
y_18_FM_WD 0
y_18_FM_RG 0
y_18_FM_SB 0
y_18_FM_AA 0
y_18_FM_GL 0
y_18_FM_SM 0
y_18_MN_WD 0
y_18_MN_RG 0
y_18_MN_SB 0
y_18_MN_AA 0
y_18_MN_GL 0
y_18_MN_SM 0
y_18_WD_RG 0
y_18_WD_SB 0
y_18_WD_AA 0
y_18_WD_GL 0
y_18_WD_SM 0
y_18_RG_SB 0
y_18_RG_AA 0
y_18_RG_GL 0
y_18_RG_SM 0
y_18_SB_AA 0
y_18_SB_GL 0
y_18_SB_SM 0
y_18_AA_GL 0
y_18_AA_SM 0
y_18_GL_SM 0
y_19_FM_MN 0
y_19_FM_RG 0
y_19_FM_SB 0
y_19_FM_GL 0
y_19_MN_RG 0
y_19_MN_SB 0
y_19_MN_GL 0
y_19_RG_SB 0
y_19_RG_GL 0
y_19_SB_GL 0
y_20_FM_MN 0
y_20_FM_RG 1
y_20_FM_SB 0
y_20_FM_GL 0
y_20_FM_CB 0
y_20_FM_EDG 0
y_20_MN_RG 1
y_20_MN_SB 0
y_20_MN_GL 0
y_20_MN_CB 0
y_20_MN_EDG 0
y_20_RG_SB 0
y_20_RG_GL 0
y_20_RG_CB 0
y_20_RG_EDG 0
y_20_SB_GL 0
y_20_SB_CB 0
y_20_SB_EDG 0
y_20_GL_CB 0
y_20_GL_EDG 0
y_20_CB_EDG 0
y_21_FM_MN 0
y_21_FM_RG 0
y_21_FM_SB 0
y_21_FM_GL 0
y_21_FM_CB 0
y_21_FM_EDG 0
y_21_MN_RG 0
y_21_MN_SB 0
y_21_MN_GL 0
y_21_MN_CB 0
y_21_MN_EDG 0
y_21_RG_SB 0
y_21_RG_GL 0
y_21_RG_CB 0
y_21_RG_EDG 0
y_21_SB_GL 0
y_21_SB_CB 0
y_21_SB_EDG 0
y_21_GL_CB 0
y_21_GL_EDG 0
y_21_CB_EDG 0
y_22_FM_MN 0
y_22_FM_RG 0
y_22_FM_SB 0
y_22_FM_GL 0
y_22_FM_CB 0
y_22_FM_EDG 0
y_22_MN_RG 0
y_22_MN_SB 0
y_22_MN_GL 0
y_22_MN_CB 0
y_22_MN_EDG 0
y_22_RG_SB 0
y_22_RG_GL 0
y_22_RG_CB 0
y_22_RG_EDG 0
y_22_SB_GL 0
y_22_SB_CB 0
y_22_SB_EDG 0
y_22_GL_CB 0
y_22_GL_EDG 0
y_22_CB_EDG 0
y_23_FM_MN 0
y_23_FM_RG 0
y_23_FM_SB 0
y_23_FM_GL 0
y_23_FM_CB 0
y_23_FM_EDG 0
y_23_MN_RG 0
y_23_MN_SB 0
y_23_MN_GL 0
y_23_MN_CB 0
y_23_MN_EDG 0
y_23_RG_SB 0
y_23_RG_GL 0
y_23_RG_CB 0
y_23_RG_EDG 0
y_23_SB_GL 0
y_23_SB_CB 0
y_23_SB_EDG 0
y_23_GL_CB 0
y_23_GL_EDG 0
y_23_CB_EDG 0
y_24_FM_MN 0
y_24_FM_RG 0
y_24_FM_SB 0
y_24_FM_GL 0
y_24_FM_CB 0
y_24_FM_EDG 0
y_24_FM_LK 0
y_24_MN_RG 0
y_24_MN_SB 0
y_24_MN_GL 0
y_24_MN_CB 0
y_24_MN_EDG 0
y_24_MN_LK 0
y_24_RG_SB 0
y_24_RG_GL 0
y_24_RG_CB 0
y_24_RG_EDG 0
y_24_RG_LK 0
y_24_SB_GL 0
y_24_SB_CB 0
y_24_SB_EDG 0
y_24_SB_LK 0
y_24_GL_CB 0
y_24_GL_EDG 0
y_24_GL_LK 0
y_24_CB_EDG 0
y_24_CB_LK 0
y_24_EDG_LK 0
y_25_FM_MN 0
y_25_FM_RG 0
y_25_FM_SB 0
y_25_FM_GL 0
y_25_FM_CB 0
y_25_FM_EDG 0
y_25_FM_LK 0
y_25_MN_RG 0
y_25_MN_SB 0
y_25_MN_GL 0
y_25_MN_CB 0
y_25_MN_EDG 0
y_25_MN_LK 0
y_25_RG_SB 0
y_25_RG_GL 0
y_25_RG_CB 0
y_25_RG_EDG 0
y_25_RG_LK 0
y_25_SB_GL 0
y_25_SB_CB 0
y_25_SB_EDG 0
y_25_SB_LK 1
y_25_GL_CB 0
y_25_GL_EDG 0
y_25_GL_LK 0
y_25_CB_EDG 0
y_25_CB_LK 0
y_25_EDG_LK 0
y_26_FM_MN 0
y_26_FM_RG 0
y_26_FM_SB 0
y_26_FM_GL 0
y_26_FM_CB 0
y_26_FM_EDG 0
y_26_FM_LK 0
y_26_MN_RG 0
y_26_MN_SB 0
y_26_MN_GL 0
y_26_MN_CB 0
y_26_MN_EDG 0
y_26_MN_LK 0
y_26_RG_SB 0
y_26_RG_GL 0
y_26_RG_CB 0
y_26_RG_EDG 0
y_26_RG_LK 0
y_26_SB_GL 0
y_26_SB_CB 0
y_26_SB_EDG 0
y_26_SB_LK 0
y_26_GL_CB 0
y_26_GL_EDG 0
y_26_GL_LK 0
y_26_CB_EDG 0
y_26_CB_LK 0
y_26_EDG_LK 0
y_27_FM_MN 0
y_27_FM_RG 1
y_27_FM_SB 0
y_27_FM_GL 0
y_27_FM_CB 0
y_27_FM_EDG 0
y_27_FM_LK 0
y_27_MN_RG 1
y_27_MN_SB 0
y_27_MN_GL 0
y_27_MN_CB 0
y_27_MN_EDG 0
y_27_MN_LK 0
y_27_RG_SB 0
y_27_RG_GL 0
y_27_RG_CB 0
y_27_RG_EDG 0
y_27_RG_LK 0
y_27_SB_GL 0
y_27_SB_CB 0
y_27_SB_EDG 0
y_27_SB_LK 0
y_27_GL_CB 0
y_27_GL_EDG 1
y_27_GL_LK 0
y_27_CB_EDG 0
y_27_CB_LK 0
y_27_EDG_LK 0
y_28_FM_MN 0
y_28_FM_RG 0
y_28_FM_SB 0
y_28_FM_GL 0
y_28_FM_CB 0
y_28_FM_EDG 0
y_28_FM_LK 0
y_28_MN_RG 0
y_28_MN_SB 0
y_28_MN_GL 0
y_28_MN_CB 0
y_28_MN_EDG 0
y_28_MN_LK 0
y_28_RG_SB 0
y_28_RG_GL 0
y_28_RG_CB 0
y_28_RG_EDG 0
y_28_RG_LK 0
y_28_SB_GL 0
y_28_SB_CB 0
y_28_SB_EDG 0
y_28_SB_LK 0
y_28_GL_CB 0
y_28_GL_EDG 0
y_28_GL_LK 0
y_28_CB_EDG 0
y_28_CB_LK 0
y_28_EDG_LK 0
y_29_FM_MN 0
y_29_FM_GL 1
y_29_FM_CB 0
y_29_FM_EDG 0
y_29_MN_GL 0
y_29_MN_CB 0
y_29_MN_EDG 0
y_29_GL_CB 0
y_29_GL_EDG 0
y_29_CB_EDG 0
y_30_FM_MN 0
y_30_FM_GL 0
y_30_FM_CB 0
y_30_FM_EDG 0
y_30_FM_AV 0
y_30_MN_GL 0
y_30_MN_CB 0
y_30_MN_EDG 0
y_30_MN_AV 0
y_30_GL_CB 0
y_30_GL_EDG 0
y_30_GL_AV 0
y_30_CB_EDG 0
y_30_CB_AV 1
y_30_EDG_AV 0
y_31_FM_MN 0
y_31_FM_GL 0
y_31_FM_EDG 0
y_31_FM_AV 0
y_31_MN_GL 0
y_31_MN_EDG 0
y_31_MN_AV 0
y_31_GL_EDG 0
y_31_GL_AV 0
y_31_EDG_AV 0
y_32_FM_MN 0
y_32_FM_GL 0
y_32_FM_EDG 0
y_32_FM_AV 0
y_32_FM_TP 0
y_32_MN_GL 0
y_32_MN_EDG 0
y_32_MN_AV 0
y_32_MN_TP 0
y_32_GL_EDG 0
y_32_GL_AV 0
y_32_GL_TP 0
y_32_EDG_AV 0
y_32_EDG_TP 0
y_32_AV_TP 0
y_33_FM_MN 0
y_33_FM_GL 0
y_33_FM_EDG 0
y_33_FM_AV 0
y_33_FM_TP 0
y_33_MN_GL 0
y_33_MN_EDG 0
y_33_MN_AV 0
y_33_MN_TP 0
y_33_GL_EDG 0
y_33_GL_AV 0
y_33_GL_TP 0
y_33_EDG_AV 0
y_33_EDG_TP 0
y_33_AV_TP 0
y_34_FM_MN 0
y_34_FM_GL 0
y_34_FM_TP 0
y_34_MN_GL 0
y_34_MN_TP 0
y_34_GL_TP 0
x_0_FM_MN 0
x_1_FM_MN 0
x_2_FM_MN 0
x_3_FM_MN 0
x_2_FM_FDL 0
x_3_FM_FDL 0
x_2_FM_WD 0
x_3_FM_WD 0
x_2_MN_FDL 0
x_3_MN_FDL 0
x_2_MN_WD 0
x_3_MN_WD 0
x_2_FDL_WD 0
x_3_FDL_WD 0
x_4_FM_MN 0
x_4_FM_FDL 0
x_4_FM_WD 0
x_4_MN_FDL 0
x_4_MN_WD 0
x_4_FDL_WD 0
x_5_FM_MN 0
x_5_FM_FDL 0
x_5_FM_WD 0
x_5_MN_FDL 0
x_5_MN_WD 0
x_5_FDL_WD 0
x_6_FM_MN 0
x_6_FM_FDL 0
x_6_FM_WD 0
x_5_FM_RG 1
x_6_FM_RG 1
x_5_FM_SB 1
x_6_FM_SB 1
x_6_MN_FDL 0
x_6_MN_WD 0
x_5_MN_RG 1
x_6_MN_RG 1
x_5_MN_SB 1
x_6_MN_SB 1
x_6_FDL_WD 0
x_5_FDL_RG 1
x_6_FDL_RG 1
x_5_FDL_SB 1
x_6_FDL_SB 1
x_5_WD_RG 1
x_6_WD_RG 1
x_5_WD_SB 1
x_6_WD_SB 1
x_5_RG_SB 1
x_6_RG_SB 1
x_7_FM_MN 0
x_7_FM_FDL 0
x_7_FM_WD 0
x_7_FM_RG 1
x_7_FM_SB 1
x_7_MN_FDL 0
x_7_MN_WD 0
x_7_MN_RG 1
x_7_MN_SB 1
x_7_FDL_WD 0
x_7_FDL_RG 1
x_7_FDL_SB 1
x_7_WD_RG 1
x_7_WD_SB 1
x_7_RG_SB 1
x_8_FM_MN 1
x_8_FM_WD 0
x_8_FM_RG 1
x_8_FM_SB 1
x_8_MN_WD 0
x_8_MN_RG 1
x_8_MN_SB 1
x_8_WD_RG 1
x_8_WD_SB 1
x_8_RG_SB 1
x_9_FM_MN 1
x_9_FM_WD 0
x_9_FM_RG 1
x_9_FM_SB 1
x_9_MN_WD 0
x_9_MN_RG 1
x_9_MN_SB 1
x_9_WD_RG 1
x_9_WD_SB 1
x_9_RG_SB 1
x_10_FM_MN 1
x_10_FM_WD 0
x_10_FM_RG 1
x_10_FM_SB 1
x_10_MN_WD 0
x_10_MN_RG 1
x_10_MN_SB 1
x_10_WD_RG 1
x_10_WD_SB 1
x_10_RG_SB 1
x_11_FM_MN 1
x_11_FM_WD 0
x_11_FM_RG 1
x_11_FM_SB 1
x_10_FM_AA 0
x_11_FM_AA 0
x_10_FM_GL 0
x_11_FM_GL 0
x_10_FM_SM 0
x_11_FM_SM 0
x_11_MN_WD 0
x_11_MN_RG 1
x_11_MN_SB 1
x_10_MN_AA 0
x_11_MN_AA 0
x_10_MN_GL 0
x_11_MN_GL 0
x_10_MN_SM 0
x_11_MN_SM 0
x_11_WD_RG 1
x_11_WD_SB 1
x_10_WD_AA 0
x_11_WD_AA 0
x_10_WD_GL 0
x_11_WD_GL 0
x_10_WD_SM 0
x_11_WD_SM 0
x_11_RG_SB 1
x_10_RG_AA 0
x_11_RG_AA 0
x_10_RG_GL 0
x_11_RG_GL 0
x_10_RG_SM 0
x_11_RG_SM 0
x_10_SB_AA 0
x_11_SB_AA 0
x_10_SB_GL 0
x_11_SB_GL 0
x_10_SB_SM 0
x_11_SB_SM 0
x_10_AA_GL 0
x_11_AA_GL 0
x_10_AA_SM 0
x_11_AA_SM 0
x_10_GL_SM 0
x_11_GL_SM 0
x_12_FM_MN 1
x_12_FM_WD 0
x_12_FM_RG 1
x_12_FM_SB 1
x_12_FM_AA 0
x_12_FM_GL 0
x_12_FM_SM 0
x_12_MN_WD 0
x_12_MN_RG 1
x_12_MN_SB 1
x_12_MN_AA 0
x_12_MN_GL 0
x_12_MN_SM 0
x_12_WD_RG 1
x_12_WD_SB 1
x_12_WD_AA 0
x_12_WD_GL 0
x_12_WD_SM 0
x_12_RG_SB 1
x_12_RG_AA 0
x_12_RG_GL 0
x_12_RG_SM 0
x_12_SB_AA 0
x_12_SB_GL 0
x_12_SB_SM 0
x_12_AA_GL 0
x_12_AA_SM 0
x_12_GL_SM 0
x_13_FM_MN 1
x_13_FM_WD 0
x_13_FM_RG 1
x_13_FM_SB 1
x_13_FM_AA 0
x_13_FM_GL 0
x_13_FM_SM 0
x_13_MN_WD 0
x_13_MN_RG 1
x_13_MN_SB 1
x_13_MN_AA 0
x_13_MN_GL 0
x_13_MN_SM 0
x_13_WD_RG 1
x_13_WD_SB 1
x_13_WD_AA 0
x_13_WD_GL 0
x_13_WD_SM 0
x_13_RG_SB 1
x_13_RG_AA 0
x_13_RG_GL 0
x_13_RG_SM 0
x_13_SB_AA 0
x_13_SB_GL 0
x_13_SB_SM 0
x_13_AA_GL 0
x_13_AA_SM 0
x_13_GL_SM 0
x_14_FM_MN 1
x_14_FM_WD 0
x_14_FM_RG 1
x_14_FM_SB 1
x_14_FM_AA 0
x_14_FM_GL 0
x_14_FM_SM 0
x_14_MN_WD 0
x_14_MN_RG 1
x_14_MN_SB 1
x_14_MN_AA 0
x_14_MN_GL 0
x_14_MN_SM 0
x_14_WD_RG 1
x_14_WD_SB 1
x_14_WD_AA 0
x_14_WD_GL 0
x_14_WD_SM 0
x_14_RG_SB 1
x_14_RG_AA 0
x_14_RG_GL 0
x_14_RG_SM 0
x_14_SB_AA 0
x_14_SB_GL 0
x_14_SB_SM 0
x_14_AA_GL 0
x_14_AA_SM 0
x_14_GL_SM 0
x_15_FM_MN 1
x_15_FM_WD 0
x_15_FM_RG 1
x_15_FM_SB 1
x_15_FM_AA 0
x_15_FM_GL 0
x_15_FM_SM 0
x_15_MN_WD 0
x_15_MN_RG 1
x_15_MN_SB 1
x_15_MN_AA 0
x_15_MN_GL 0
x_15_MN_SM 0
x_15_WD_RG 1
x_15_WD_SB 1
x_15_WD_AA 0
x_15_WD_GL 0
x_15_WD_SM 0
x_15_RG_SB 1
x_15_RG_AA 0
x_15_RG_GL 0
x_15_RG_SM 0
x_15_SB_AA 0
x_15_SB_GL 0
x_15_SB_SM 0
x_15_AA_GL 0
x_15_AA_SM 0
x_15_GL_SM 0
x_16_FM_MN 1
x_16_FM_WD 0
x_16_FM_RG 1
x_16_FM_SB 1
x_16_FM_AA 0
x_16_FM_GL 0
x_16_FM_SM 0
x_16_MN_WD 0
x_16_MN_RG 1
x_16_MN_SB 1
x_16_MN_AA 0
x_16_MN_GL 0
x_16_MN_SM 0
x_16_WD_RG 1
x_16_WD_SB 1
x_16_WD_AA 0
x_16_WD_GL 0
x_16_WD_SM 0
x_16_RG_SB 1
x_16_RG_AA 0
x_16_RG_GL 0
x_16_RG_SM 0
x_16_SB_AA 0
x_16_SB_GL 0
x_16_SB_SM 0
x_16_AA_GL 0
x_16_AA_SM 0
x_16_GL_SM 0
x_17_FM_MN 1
x_17_FM_WD 0
x_17_FM_RG 1
x_17_FM_SB 1
x_17_FM_AA 0
x_17_FM_GL 0
x_17_FM_SM 0
x_17_MN_WD 0
x_17_MN_RG 1
x_17_MN_SB 1
x_17_MN_AA 0
x_17_MN_GL 0
x_17_MN_SM 0
x_17_WD_RG 1
x_17_WD_SB 1
x_17_WD_AA 0
x_17_WD_GL 0
x_17_WD_SM 0
x_17_RG_SB 1
x_17_RG_AA 0
x_17_RG_GL 0
x_17_RG_SM 0
x_17_SB_AA 0
x_17_SB_GL 0
x_17_SB_SM 0
x_17_AA_GL 0
x_17_AA_SM 0
x_17_GL_SM 0
x_18_FM_MN 1
x_18_FM_WD 0
x_18_FM_RG 1
x_18_FM_SB 1
x_18_FM_AA 0
x_18_FM_GL 0
x_18_FM_SM 0
x_18_MN_WD 0
x_18_MN_RG 1
x_18_MN_SB 1
x_18_MN_AA 0
x_18_MN_GL 0
x_18_MN_SM 0
x_18_WD_RG 1
x_18_WD_SB 1
x_18_WD_AA 0
x_18_WD_GL 0
x_18_WD_SM 0
x_18_RG_SB 1
x_18_RG_AA 0
x_18_RG_GL 0
x_18_RG_SM 0
x_18_SB_AA 0
x_18_SB_GL 0
x_18_SB_SM 0
x_18_AA_GL 0
x_18_AA_SM 0
x_18_GL_SM 0
x_19_FM_MN 1
x_19_FM_WD 0
x_19_FM_RG 1
x_19_FM_SB 1
x_19_FM_AA 0
x_19_FM_GL 0
x_19_FM_SM 0
x_19_MN_WD 0
x_19_MN_RG 1
x_19_MN_SB 1
x_19_MN_AA 0
x_19_MN_GL 0
x_19_MN_SM 0
x_19_WD_RG 1
x_19_WD_SB 1
x_19_WD_AA 0
x_19_WD_GL 0
x_19_WD_SM 0
x_19_RG_SB 1
x_19_RG_AA 0
x_19_RG_GL 0
x_19_RG_SM 0
x_19_SB_AA 0
x_19_SB_GL 0
x_19_SB_SM 0
x_19_AA_GL 0
x_19_AA_SM 0
x_19_GL_SM 0
x_20_FM_MN 1
x_20_FM_RG 1
x_20_FM_SB 1
x_20_FM_GL 0
x_20_MN_RG 1
x_20_MN_SB 1
x_20_MN_GL 0
x_20_RG_SB 1
x_20_RG_GL 0
x_20_SB_GL 0
x_21_FM_MN 1
x_21_FM_RG 0
x_21_FM_SB 1
x_21_FM_GL 0
x_20_FM_CB 0
x_21_FM_CB 0
x_20_FM_EDG 0
x_21_FM_EDG 0
x_21_MN_RG 0
x_21_MN_SB 1
x_21_MN_GL 0
x_20_MN_CB 0
x_21_MN_CB 0
x_20_MN_EDG 0
x_21_MN_EDG 0
x_21_RG_SB 1
x_21_RG_GL 0
x_20_RG_CB 0
x_21_RG_CB 0
x_20_RG_EDG 0
x_21_RG_EDG 0
x_21_SB_GL 0
x_20_SB_CB 0
x_21_SB_CB 0
x_20_SB_EDG 0
x_21_SB_EDG 0
x_20_GL_CB 0
x_21_GL_CB 0
x_20_GL_EDG 1
x_21_GL_EDG 1
x_20_CB_EDG 1
x_21_CB_EDG 1
x_22_FM_MN 1
x_22_FM_RG 0
x_22_FM_SB 1
x_22_FM_GL 0
x_22_FM_CB 0
x_22_FM_EDG 0
x_22_MN_RG 0
x_22_MN_SB 1
x_22_MN_GL 0
x_22_MN_CB 0
x_22_MN_EDG 0
x_22_RG_SB 1
x_22_RG_GL 0
x_22_RG_CB 0
x_22_RG_EDG 0
x_22_SB_GL 0
x_22_SB_CB 0
x_22_SB_EDG 0
x_22_GL_CB 0
x_22_GL_EDG 1
x_22_CB_EDG 1
x_23_FM_MN 1
x_23_FM_RG 0
x_23_FM_SB 1
x_23_FM_GL 0
x_23_FM_CB 0
x_23_FM_EDG 0
x_23_MN_RG 0
x_23_MN_SB 1
x_23_MN_GL 0
x_23_MN_CB 0
x_23_MN_EDG 0
x_23_RG_SB 1
x_23_RG_GL 0
x_23_RG_CB 0
x_23_RG_EDG 0
x_23_SB_GL 0
x_23_SB_CB 0
x_23_SB_EDG 0
x_23_GL_CB 0
x_23_GL_EDG 1
x_23_CB_EDG 1
x_24_FM_MN 1
x_24_FM_RG 0
x_24_FM_SB 1
x_24_FM_GL 0
x_24_FM_CB 0
x_24_FM_EDG 0
x_24_MN_RG 0
x_24_MN_SB 1
x_24_MN_GL 0
x_24_MN_CB 0
x_24_MN_EDG 0
x_24_RG_SB 1
x_24_RG_GL 0
x_24_RG_CB 0
x_24_RG_EDG 0
x_24_SB_GL 0
x_24_SB_CB 0
x_24_SB_EDG 0
x_24_GL_CB 0
x_24_GL_EDG 1
x_24_CB_EDG 1
x_25_FM_MN 1
x_25_FM_RG 0
x_25_FM_SB 1
x_25_FM_GL 0
x_25_FM_CB 0
x_25_FM_EDG 0
x_24_FM_LK 1
x_25_FM_LK 1
x_25_MN_RG 0
x_25_MN_SB 1
x_25_MN_GL 0
x_25_MN_CB 0
x_25_MN_EDG 0
x_24_MN_LK 1
x_25_MN_LK 1
x_25_RG_SB 1
x_25_RG_GL 0
x_25_RG_CB 0
x_25_RG_EDG 0
x_24_RG_LK 1
x_25_RG_LK 1
x_25_SB_GL 0
x_25_SB_CB 0
x_25_SB_EDG 0
x_24_SB_LK 0
x_25_SB_LK 0
x_25_GL_CB 0
x_25_GL_EDG 1
x_24_GL_LK 1
x_25_GL_LK 1
x_25_CB_EDG 1
x_24_CB_LK 1
x_25_CB_LK 1
x_24_EDG_LK 1
x_25_EDG_LK 1
x_26_FM_MN 1
x_26_FM_RG 0
x_26_FM_SB 1
x_26_FM_GL 0
x_26_FM_CB 0
x_26_FM_EDG 0
x_26_FM_LK 1
x_26_MN_RG 0
x_26_MN_SB 1
x_26_MN_GL 0
x_26_MN_CB 0
x_26_MN_EDG 0
x_26_MN_LK 1
x_26_RG_SB 1
x_26_RG_GL 0
x_26_RG_CB 0
x_26_RG_EDG 0
x_26_RG_LK 1
x_26_SB_GL 0
x_26_SB_CB 0
x_26_SB_EDG 0
x_26_SB_LK 1
x_26_GL_CB 0
x_26_GL_EDG 1
x_26_GL_LK 1
x_26_CB_EDG 1
x_26_CB_LK 1
x_26_EDG_LK 1
x_27_FM_MN 1
x_27_FM_RG 0
x_27_FM_SB 1
x_27_FM_GL 0
x_27_FM_CB 0
x_27_FM_EDG 0
x_27_FM_LK 1
x_27_MN_RG 0
x_27_MN_SB 1
x_27_MN_GL 0
x_27_MN_CB 0
x_27_MN_EDG 0
x_27_MN_LK 1
x_27_RG_SB 1
x_27_RG_GL 0
x_27_RG_CB 0
x_27_RG_EDG 0
x_27_RG_LK 1
x_27_SB_GL 0
x_27_SB_CB 0
x_27_SB_EDG 0
x_27_SB_LK 1
x_27_GL_CB 0
x_27_GL_EDG 1
x_27_GL_LK 1
x_27_CB_EDG 1
x_27_CB_LK 1
x_27_EDG_LK 1
x_28_FM_MN 1
x_28_FM_RG 1
x_28_FM_SB 1
x_28_FM_GL 0
x_28_FM_CB 0
x_28_FM_EDG 0
x_28_FM_LK 1
x_28_MN_RG 1
x_28_MN_SB 1
x_28_MN_GL 0
x_28_MN_CB 0
x_28_MN_EDG 0
x_28_MN_LK 1
x_28_RG_SB 1
x_28_RG_GL 0
x_28_RG_CB 0
x_28_RG_EDG 0
x_28_RG_LK 1
x_28_SB_GL 0
x_28_SB_CB 0
x_28_SB_EDG 0
x_28_SB_LK 1
x_28_GL_CB 0
x_28_GL_EDG 0
x_28_GL_LK 1
x_28_CB_EDG 1
x_28_CB_LK 1
x_28_EDG_LK 1
x_29_FM_MN 1
x_29_FM_RG 1
x_29_FM_SB 1
x_29_FM_GL 0
x_29_FM_CB 0
x_29_FM_EDG 0
x_29_FM_LK 1
x_29_MN_RG 1
x_29_MN_SB 1
x_29_MN_GL 0
x_29_MN_CB 0
x_29_MN_EDG 0
x_29_MN_LK 1
x_29_RG_SB 1
x_29_RG_GL 0
x_29_RG_CB 0
x_29_RG_EDG 0
x_29_RG_LK 1
x_29_SB_GL 0
x_29_SB_CB 0
x_29_SB_EDG 0
x_29_SB_LK 1
x_29_GL_CB 0
x_29_GL_EDG 0
x_29_GL_LK 1
x_29_CB_EDG 1
x_29_CB_LK 1
x_29_EDG_LK 1
x_30_FM_MN 1
x_30_FM_GL 1
x_30_FM_CB 0
x_30_FM_EDG 0
x_30_MN_GL 0
x_30_MN_CB 0
x_30_MN_EDG 0
x_30_GL_CB 0
x_30_GL_EDG 0
x_30_CB_EDG 1
x_31_FM_MN 1
x_31_FM_GL 1
x_31_FM_CB 0
x_31_FM_EDG 0
x_30_FM_AV 0
x_31_FM_AV 0
x_31_MN_GL 0
x_31_MN_CB 0
x_31_MN_EDG 0
x_30_MN_AV 0
x_31_MN_AV 0
x_31_GL_CB 0
x_31_GL_EDG 0
x_30_GL_AV 0
x_31_GL_AV 0
x_31_CB_EDG 1
x_30_CB_AV 1
x_31_CB_AV 0
x_30_EDG_AV 0
x_31_EDG_AV 0
x_32_FM_MN 1
x_32_FM_GL 1
x_32_FM_EDG 0
x_32_FM_AV 0
x_32_MN_GL 0
x_32_MN_EDG 0
x_32_MN_AV 0
x_32_GL_EDG 0
x_32_GL_AV 0
x_32_EDG_AV 0
x_33_FM_MN 1
x_33_FM_GL 1
x_33_FM_EDG 0
x_33_FM_AV 0
x_32_FM_TP 1
x_33_FM_TP 1
x_33_MN_GL 0
x_33_MN_EDG 0
x_33_MN_AV 0
x_32_MN_TP 0
x_33_MN_TP 0
x_33_GL_EDG 0
x_33_GL_AV 0
x_32_GL_TP 0
x_33_GL_TP 0
x_33_EDG_AV 0
x_32_EDG_TP 1
x_33_EDG_TP 1
x_32_AV_TP 1
x_33_AV_TP 1
x_34_FM_MN 1
x_34_FM_GL 1
x_34_FM_EDG 0
x_34_FM_AV 0
x_34_FM_TP 1
x_34_MN_GL 0
x_34_MN_EDG 0
x_34_MN_AV 0
x_34_MN_TP 0
x_34_GL_EDG 0
x_34_GL_AV 0
x_34_GL_TP 0
x_34_EDG_AV 0
x_34_EDG_TP 1
x_34_AV_TP 1
x_35_FM_MN 1
x_35_FM_GL 1
x_35_FM_TP 1
x_35_MN_GL 0
x_35_MN_TP 0
x_35_GL_TP 0
x_0_MN_FM 1
x_1_MN_FM 1
x_2_MN_FM 1
x_2_FDL_FM 1
x_2_WD_FM 1
x_2_FDL_MN 1
x_2_WD_MN 1
x_2_WD_FDL 1
x_3_MN_FM 1
x_3_FDL_FM 1
x_3_WD_FM 1
x_3_FDL_MN 1
x_3_WD_MN 1
x_3_WD_FDL 1
x_4_MN_FM 1
x_4_FDL_FM 1
x_4_WD_FM 1
x_4_FDL_MN 1
x_4_WD_MN 1
x_4_WD_FDL 1
x_5_MN_FM 1
x_5_FDL_FM 1
x_5_WD_FM 1
x_5_RG_FM 0
x_5_SB_FM 0
x_5_FDL_MN 1
x_5_WD_MN 1
x_5_RG_MN 0
x_5_SB_MN 0
x_5_WD_FDL 1
x_5_RG_FDL 0
x_5_SB_FDL 0
x_5_RG_WD 0
x_5_SB_WD 0
x_5_SB_RG 0
x_6_MN_FM 1
x_6_FDL_FM 1
x_6_WD_FM 1
x_6_RG_FM 0
x_6_SB_FM 0
x_6_FDL_MN 1
x_6_WD_MN 1
x_6_RG_MN 0
x_6_SB_MN 0
x_6_WD_FDL 1
x_6_RG_FDL 0
x_6_SB_FDL 0
x_6_RG_WD 0
x_6_SB_WD 0
x_6_SB_RG 0
x_7_MN_FM 1
x_7_FDL_FM 1
x_7_WD_FM 1
x_7_RG_FM 0
x_7_SB_FM 0
x_7_FDL_MN 1
x_7_WD_MN 1
x_7_RG_MN 0
x_7_SB_MN 0
x_7_WD_FDL 1
x_7_RG_FDL 0
x_7_SB_FDL 0
x_7_RG_WD 0
x_7_SB_WD 0
x_7_SB_RG 0
x_8_MN_FM 0
x_8_WD_FM 1
x_8_RG_FM 0
x_8_SB_FM 0
x_8_WD_MN 1
x_8_RG_MN 0
x_8_SB_MN 0
x_8_RG_WD 0
x_8_SB_WD 0
x_8_SB_RG 0
x_9_MN_FM 0
x_9_WD_FM 1
x_9_RG_FM 0
x_9_SB_FM 0
x_9_WD_MN 1
x_9_RG_MN 0
x_9_SB_MN 0
x_9_RG_WD 0
x_9_SB_WD 0
x_9_SB_RG 0
x_10_MN_FM 0
x_10_WD_FM 1
x_10_RG_FM 0
x_10_SB_FM 0
x_10_AA_FM 1
x_10_GL_FM 1
x_10_SM_FM 1
x_10_WD_MN 1
x_10_RG_MN 0
x_10_SB_MN 0
x_10_AA_MN 1
x_10_GL_MN 1
x_10_SM_MN 1
x_10_RG_WD 0
x_10_SB_WD 0
x_10_AA_WD 1
x_10_GL_WD 1
x_10_SM_WD 1
x_10_SB_RG 0
x_10_AA_RG 1
x_10_GL_RG 1
x_10_SM_RG 1
x_10_AA_SB 1
x_10_GL_SB 1
x_10_SM_SB 1
x_10_GL_AA 1
x_10_SM_AA 1
x_10_SM_GL 1
x_11_MN_FM 0
x_11_WD_FM 1
x_11_RG_FM 0
x_11_SB_FM 0
x_11_AA_FM 1
x_11_GL_FM 1
x_11_SM_FM 1
x_11_WD_MN 1
x_11_RG_MN 0
x_11_SB_MN 0
x_11_AA_MN 1
x_11_GL_MN 1
x_11_SM_MN 1
x_11_RG_WD 0
x_11_SB_WD 0
x_11_AA_WD 1
x_11_GL_WD 1
x_11_SM_WD 1
x_11_SB_RG 0
x_11_AA_RG 1
x_11_GL_RG 1
x_11_SM_RG 1
x_11_AA_SB 1
x_11_GL_SB 1
x_11_SM_SB 1
x_11_GL_AA 1
x_11_SM_AA 1
x_11_SM_GL 1
x_12_MN_FM 0
x_12_WD_FM 1
x_12_RG_FM 0
x_12_SB_FM 0
x_12_AA_FM 1
x_12_GL_FM 1
x_12_SM_FM 1
x_12_WD_MN 1
x_12_RG_MN 0
x_12_SB_MN 0
x_12_AA_MN 1
x_12_GL_MN 1
x_12_SM_MN 1
x_12_RG_WD 0
x_12_SB_WD 0
x_12_AA_WD 1
x_12_GL_WD 1
x_12_SM_WD 1
x_12_SB_RG 0
x_12_AA_RG 1
x_12_GL_RG 1
x_12_SM_RG 1
x_12_AA_SB 1
x_12_GL_SB 1
x_12_SM_SB 1
x_12_GL_AA 1
x_12_SM_AA 1
x_12_SM_GL 1
x_13_MN_FM 0
x_13_WD_FM 1
x_13_RG_FM 0
x_13_SB_FM 0
x_13_AA_FM 1
x_13_GL_FM 1
x_13_SM_FM 1
x_13_WD_MN 1
x_13_RG_MN 0
x_13_SB_MN 0
x_13_AA_MN 1
x_13_GL_MN 1
x_13_SM_MN 1
x_13_RG_WD 0
x_13_SB_WD 0
x_13_AA_WD 1
x_13_GL_WD 1
x_13_SM_WD 1
x_13_SB_RG 0
x_13_AA_RG 1
x_13_GL_RG 1
x_13_SM_RG 1
x_13_AA_SB 1
x_13_GL_SB 1
x_13_SM_SB 1
x_13_GL_AA 1
x_13_SM_AA 1
x_13_SM_GL 1
x_14_MN_FM 0
x_14_WD_FM 1
x_14_RG_FM 0
x_14_SB_FM 0
x_14_AA_FM 1
x_14_GL_FM 1
x_14_SM_FM 1
x_14_WD_MN 1
x_14_RG_MN 0
x_14_SB_MN 0
x_14_AA_MN 1
x_14_GL_MN 1
x_14_SM_MN 1
x_14_RG_WD 0
x_14_SB_WD 0
x_14_AA_WD 1
x_14_GL_WD 1
x_14_SM_WD 1
x_14_SB_RG 0
x_14_AA_RG 1
x_14_GL_RG 1
x_14_SM_RG 1
x_14_AA_SB 1
x_14_GL_SB 1
x_14_SM_SB 1
x_14_GL_AA 1
x_14_SM_AA 1
x_14_SM_GL 1
x_15_MN_FM 0
x_15_WD_FM 1
x_15_RG_FM 0
x_15_SB_FM 0
x_15_AA_FM 1
x_15_GL_FM 1
x_15_SM_FM 1
x_15_WD_MN 1
x_15_RG_MN 0
x_15_SB_MN 0
x_15_AA_MN 1
x_15_GL_MN 1
x_15_SM_MN 1
x_15_RG_WD 0
x_15_SB_WD 0
x_15_AA_WD 1
x_15_GL_WD 1
x_15_SM_WD 1
x_15_SB_RG 0
x_15_AA_RG 1
x_15_GL_RG 1
x_15_SM_RG 1
x_15_AA_SB 1
x_15_GL_SB 1
x_15_SM_SB 1
x_15_GL_AA 1
x_15_SM_AA 1
x_15_SM_GL 1
x_16_MN_FM 0
x_16_WD_FM 1
x_16_RG_FM 0
x_16_SB_FM 0
x_16_AA_FM 1
x_16_GL_FM 1
x_16_SM_FM 1
x_16_WD_MN 1
x_16_RG_MN 0
x_16_SB_MN 0
x_16_AA_MN 1
x_16_GL_MN 1
x_16_SM_MN 1
x_16_RG_WD 0
x_16_SB_WD 0
x_16_AA_WD 1
x_16_GL_WD 1
x_16_SM_WD 1
x_16_SB_RG 0
x_16_AA_RG 1
x_16_GL_RG 1
x_16_SM_RG 1
x_16_AA_SB 1
x_16_GL_SB 1
x_16_SM_SB 1
x_16_GL_AA 1
x_16_SM_AA 1
x_16_SM_GL 1
x_17_MN_FM 0
x_17_WD_FM 1
x_17_RG_FM 0
x_17_SB_FM 0
x_17_AA_FM 1
x_17_GL_FM 1
x_17_SM_FM 1
x_17_WD_MN 1
x_17_RG_MN 0
x_17_SB_MN 0
x_17_AA_MN 1
x_17_GL_MN 1
x_17_SM_MN 1
x_17_RG_WD 0
x_17_SB_WD 0
x_17_AA_WD 1
x_17_GL_WD 1
x_17_SM_WD 1
x_17_SB_RG 0
x_17_AA_RG 1
x_17_GL_RG 1
x_17_SM_RG 1
x_17_AA_SB 1
x_17_GL_SB 1
x_17_SM_SB 1
x_17_GL_AA 1
x_17_SM_AA 1
x_17_SM_GL 1
x_18_MN_FM 0
x_18_WD_FM 1
x_18_RG_FM 0
x_18_SB_FM 0
x_18_AA_FM 1
x_18_GL_FM 1
x_18_SM_FM 1
x_18_WD_MN 1
x_18_RG_MN 0
x_18_SB_MN 0
x_18_AA_MN 1
x_18_GL_MN 1
x_18_SM_MN 1
x_18_RG_WD 0
x_18_SB_WD 0
x_18_AA_WD 1
x_18_GL_WD 1
x_18_SM_WD 1
x_18_SB_RG 0
x_18_AA_RG 1
x_18_GL_RG 1
x_18_SM_RG 1
x_18_AA_SB 1
x_18_GL_SB 1
x_18_SM_SB 1
x_18_GL_AA 1
x_18_SM_AA 1
x_18_SM_GL 1
x_19_MN_FM 0
x_19_WD_FM 1
x_19_RG_FM 0
x_19_SB_FM 0
x_19_AA_FM 1
x_19_GL_FM 1
x_19_SM_FM 1
x_19_WD_MN 1
x_19_RG_MN 0
x_19_SB_MN 0
x_19_AA_MN 1
x_19_GL_MN 1
x_19_SM_MN 1
x_19_RG_WD 0
x_19_SB_WD 0
x_19_AA_WD 1
x_19_GL_WD 1
x_19_SM_WD 1
x_19_SB_RG 0
x_19_AA_RG 1
x_19_GL_RG 1
x_19_SM_RG 1
x_19_AA_SB 1
x_19_GL_SB 1
x_19_SM_SB 1
x_19_GL_AA 1
x_19_SM_AA 1
x_19_SM_GL 1
x_20_MN_FM 0
x_20_RG_FM 0
x_20_SB_FM 0
x_20_GL_FM 1
x_20_CB_FM 1
x_20_EDG_FM 1
x_20_RG_MN 0
x_20_SB_MN 0
x_20_GL_MN 1
x_20_CB_MN 1
x_20_EDG_MN 1
x_20_SB_RG 0
x_20_GL_RG 1
x_20_CB_RG 1
x_20_EDG_RG 1
x_20_GL_SB 1
x_20_CB_SB 1
x_20_EDG_SB 1
x_20_CB_GL 1
x_20_EDG_GL 0
x_20_EDG_CB 0
x_21_MN_FM 0
x_21_RG_FM 1
x_21_SB_FM 0
x_21_GL_FM 1
x_21_CB_FM 1
x_21_EDG_FM 1
x_21_RG_MN 1
x_21_SB_MN 0
x_21_GL_MN 1
x_21_CB_MN 1
x_21_EDG_MN 1
x_21_SB_RG 0
x_21_GL_RG 1
x_21_CB_RG 1
x_21_EDG_RG 1
x_21_GL_SB 1
x_21_CB_SB 1
x_21_EDG_SB 1
x_21_CB_GL 1
x_21_EDG_GL 0
x_21_EDG_CB 0
x_22_MN_FM 0
x_22_RG_FM 1
x_22_SB_FM 0
x_22_GL_FM 1
x_22_CB_FM 1
x_22_EDG_FM 1
x_22_RG_MN 1
x_22_SB_MN 0
x_22_GL_MN 1
x_22_CB_MN 1
x_22_EDG_MN 1
x_22_SB_RG 0
x_22_GL_RG 1
x_22_CB_RG 1
x_22_EDG_RG 1
x_22_GL_SB 1
x_22_CB_SB 1
x_22_EDG_SB 1
x_22_CB_GL 1
x_22_EDG_GL 0
x_22_EDG_CB 0
x_23_MN_FM 0
x_23_RG_FM 1
x_23_SB_FM 0
x_23_GL_FM 1
x_23_CB_FM 1
x_23_EDG_FM 1
x_23_RG_MN 1
x_23_SB_MN 0
x_23_GL_MN 1
x_23_CB_MN 1
x_23_EDG_MN 1
x_23_SB_RG 0
x_23_GL_RG 1
x_23_CB_RG 1
x_23_EDG_RG 1
x_23_GL_SB 1
x_23_CB_SB 1
x_23_EDG_SB 1
x_23_CB_GL 1
x_23_EDG_GL 0
x_23_EDG_CB 0
x_24_MN_FM 0
x_24_RG_FM 1
x_24_SB_FM 0
x_24_GL_FM 1
x_24_CB_FM 1
x_24_EDG_FM 1
x_24_LK_FM 0
x_24_RG_MN 1
x_24_SB_MN 0
x_24_GL_MN 1
x_24_CB_MN 1
x_24_EDG_MN 1
x_24_LK_MN 0
x_24_SB_RG 0
x_24_GL_RG 1
x_24_CB_RG 1
x_24_EDG_RG 1
x_24_LK_RG 0
x_24_GL_SB 1
x_24_CB_SB 1
x_24_EDG_SB 1
x_24_LK_SB 1
x_24_CB_GL 1
x_24_EDG_GL 0
x_24_LK_GL 0
x_24_EDG_CB 0
x_24_LK_CB 0
x_24_LK_EDG 0
x_25_MN_FM 0
x_25_RG_FM 1
x_25_SB_FM 0
x_25_GL_FM 1
x_25_CB_FM 1
x_25_EDG_FM 1
x_25_LK_FM 0
x_25_RG_MN 1
x_25_SB_MN 0
x_25_GL_MN 1
x_25_CB_MN 1
x_25_EDG_MN 1
x_25_LK_MN 0
x_25_SB_RG 0
x_25_GL_RG 1
x_25_CB_RG 1
x_25_EDG_RG 1
x_25_LK_RG 0
x_25_GL_SB 1
x_25_CB_SB 1
x_25_EDG_SB 1
x_25_LK_SB 1
x_25_CB_GL 1
x_25_EDG_GL 0
x_25_LK_GL 0
x_25_EDG_CB 0
x_25_LK_CB 0
x_25_LK_EDG 0
x_26_MN_FM 0
x_26_RG_FM 1
x_26_SB_FM 0
x_26_GL_FM 1
x_26_CB_FM 1
x_26_EDG_FM 1
x_26_LK_FM 0
x_26_RG_MN 1
x_26_SB_MN 0
x_26_GL_MN 1
x_26_CB_MN 1
x_26_EDG_MN 1
x_26_LK_MN 0
x_26_SB_RG 0
x_26_GL_RG 1
x_26_CB_RG 1
x_26_EDG_RG 1
x_26_LK_RG 0
x_26_GL_SB 1
x_26_CB_SB 1
x_26_EDG_SB 1
x_26_LK_SB 0
x_26_CB_GL 1
x_26_EDG_GL 0
x_26_LK_GL 0
x_26_EDG_CB 0
x_26_LK_CB 0
x_26_LK_EDG 0
x_27_MN_FM 0
x_27_RG_FM 1
x_27_SB_FM 0
x_27_GL_FM 1
x_27_CB_FM 1
x_27_EDG_FM 1
x_27_LK_FM 0
x_27_RG_MN 1
x_27_SB_MN 0
x_27_GL_MN 1
x_27_CB_MN 1
x_27_EDG_MN 1
x_27_LK_MN 0
x_27_SB_RG 0
x_27_GL_RG 1
x_27_CB_RG 1
x_27_EDG_RG 1
x_27_LK_RG 0
x_27_GL_SB 1
x_27_CB_SB 1
x_27_EDG_SB 1
x_27_LK_SB 0
x_27_CB_GL 1
x_27_EDG_GL 0
x_27_LK_GL 0
x_27_EDG_CB 0
x_27_LK_CB 0
x_27_LK_EDG 0
x_28_MN_FM 0
x_28_RG_FM 0
x_28_SB_FM 0
x_28_GL_FM 1
x_28_CB_FM 1
x_28_EDG_FM 1
x_28_LK_FM 0
x_28_RG_MN 0
x_28_SB_MN 0
x_28_GL_MN 1
x_28_CB_MN 1
x_28_EDG_MN 1
x_28_LK_MN 0
x_28_SB_RG 0
x_28_GL_RG 1
x_28_CB_RG 1
x_28_EDG_RG 1
x_28_LK_RG 0
x_28_GL_SB 1
x_28_CB_SB 1
x_28_EDG_SB 1
x_28_LK_SB 0
x_28_CB_GL 1
x_28_EDG_GL 1
x_28_LK_GL 0
x_28_EDG_CB 0
x_28_LK_CB 0
x_28_LK_EDG 0
x_29_MN_FM 0
x_29_RG_FM 0
x_29_SB_FM 0
x_29_GL_FM 1
x_29_CB_FM 1
x_29_EDG_FM 1
x_29_LK_FM 0
x_29_RG_MN 0
x_29_SB_MN 0
x_29_GL_MN 1
x_29_CB_MN 1
x_29_EDG_MN 1
x_29_LK_MN 0
x_29_SB_RG 0
x_29_GL_RG 1
x_29_CB_RG 1
x_29_EDG_RG 1
x_29_LK_RG 0
x_29_GL_SB 1
x_29_CB_SB 1
x_29_EDG_SB 1
x_29_LK_SB 0
x_29_CB_GL 1
x_29_EDG_GL 1
x_29_LK_GL 0
x_29_EDG_CB 0
x_29_LK_CB 0
x_29_LK_EDG 0
x_30_MN_FM 0
x_30_GL_FM 0
x_30_CB_FM 1
x_30_EDG_FM 1
x_30_AV_FM 1
x_30_GL_MN 1
x_30_CB_MN 1
x_30_EDG_MN 1
x_30_AV_MN 1
x_30_CB_GL 1
x_30_EDG_GL 1
x_30_AV_GL 1
x_30_EDG_CB 0
x_30_AV_CB 0
x_30_AV_EDG 1
x_31_MN_FM 0
x_31_GL_FM 0
x_31_CB_FM 1
x_31_EDG_FM 1
x_31_AV_FM 1
x_31_GL_MN 1
x_31_CB_MN 1
x_31_EDG_MN 1
x_31_AV_MN 1
x_31_CB_GL 1
x_31_EDG_GL 1
x_31_AV_GL 1
x_31_EDG_CB 0
x_31_AV_CB 1
x_31_AV_EDG 1
x_32_MN_FM 0
x_32_GL_FM 0
x_32_EDG_FM 1
x_32_AV_FM 1
x_32_FM_AT 1
x_32_AT_FM 0
x_32_FM_MW 1
x_32_MW_FM 0
x_32_TP_FM 0
x_32_GL_MN 1
x_32_EDG_MN 1
x_32_AV_MN 1
x_32_MN_AT 0
x_32_AT_MN 1
x_32_MN_MW 0
x_32_MW_MN 1
x_32_TP_MN 1
x_32_EDG_GL 1
x_32_AV_GL 1
x_32_GL_AT 0
x_32_AT_GL 1
x_32_GL_MW 0
x_32_MW_GL 1
x_32_TP_GL 1
x_32_AV_EDG 1
x_32_EDG_AT 1
x_32_AT_EDG 0
x_32_EDG_MW 1
x_32_MW_EDG 0
x_32_TP_EDG 0
x_32_AV_AT 1
x_32_AT_AV 0
x_32_AV_MW 1
x_32_MW_AV 0
x_32_TP_AV 0
x_32_AT_MW 0
x_32_MW_AT 1
x_32_AT_TP 0
x_32_TP_AT 1
x_32_MW_TP 0
x_32_TP_MW 1
x_33_MN_FM 0
x_33_GL_FM 0
x_33_EDG_FM 1
x_33_AV_FM 1
x_33_TP_FM 0
x_33_GL_MN 1
x_33_EDG_MN 1
x_33_AV_MN 1
x_33_TP_MN 1
x_33_EDG_GL 1
x_33_AV_GL 1
x_33_TP_GL 1
x_33_AV_EDG 1
x_33_TP_EDG 0
x_33_TP_AV 0
x_34_MN_FM 0
x_34_GL_FM 0
x_34_EDG_FM 1
x_34_AV_FM 1
x_34_TP_FM 0
x_34_GL_MN 1
x_34_EDG_MN 1
x_34_AV_MN 1
x_34_TP_MN 1
x_34_EDG_GL 1
x_34_AV_GL 1
x_34_TP_GL 1
x_34_AV_EDG 1
x_34_TP_EDG 0
x_34_TP_AV 0
x_35_MN_FM 0
x_35_GL_FM 0
x_35_TP_FM 0
x_35_GL_MN 1
x_35_TP_MN 1
x_35_TP_GL 1
